p cnf 7230 17
-1938 -2126 3289 0
2126 -3289 0
-1952 -2274 -3294 0
-1950 -2650 -3292 0
-1940 -2660 -3290 0
1952 -3295 0
1950 -3293 0
1940 -3291 0
3294 3295 0
3292 3293 0
3290 3291 0
2274 -3295 0
2650 -3293 0
2660 -3291 0
1958 -3297 0
3288 3289 0
-3288 -3289 0
